0 0 0 0
0 1 0 0
0 2 0 0
0 3 0 0
0 4 0 2
0 5 0 1
0 6 0 3
0 7 0 8
0 8 0 10
0 9 2 3
0 10 0 10
0 11 0 10
0 12 0 13
0 13 0 2
0 14 0 13
0 15 0 9
0 16 0 9
0 17 0 13
0 18 0 16
0 19 0 15
0 20 1 15
0 21 0 18
0 22 1 15
0 23 1 13
0 24 0 19
0 25 0 23
0 26 0 18
0 27 0 24
0 28 0 18
0 29 0 22
0 30 0 26
0 31 0 27
